Running MiniSat on FULL_RUN_MINISAT\0ac6aaf6db6a0e4ec3a06e865d01086f-pcmax-scheduling-m13-2011-12813-UNSAT.sanitized.cnf...
============================[ Problem Statistics ]=============================
|                                                                             |
|  Number of variables:          2010                                         |
|  Number of clauses:           11953                                         |
|  Parse time:                   0.03 s                                       |
|                                                                             |
============================[ Search Statistics ]==============================
| Conflicts |          ORIGINAL         |          LEARNT          | Progress |
|           |    Vars  Clauses Literals |    Limit  Clauses Lit/Cl |          |
===============================================================================
|       100 |    1818    10826    30903 |     3969      100      5 |  9.553 % |
|       250 |    1810    10826    30903 |     4366      249     13 |  9.950 % |
|       475 |    1810    10701    30566 |     4803      474     20 |  9.950 % |
|       812 |    1810    10701    30566 |     5283      811     22 |  9.950 % |
|      1318 |    1810    10701    30566 |     5811     1317     29 |  9.950 % |
|      2077 |    1810    10701    30566 |     6392     2076     33 |  9.950 % |
|      3216 |    1810    10701    30566 |     7032     3215     38 |  9.950 % |
|      4924 |    1810    10701    30566 |     7735     4923     44 |  9.950 % |
|      7486 |    1810    10701    30566 |     8509     7485     49 |  9.950 % |
|     11330 |    1810    10701    30566 |     9359     6919     50 |  9.950 % |
|     17096 |    1810    10701    30566 |    10295     7768     45 |  9.950 % |
|     25745 |    1810    10701    30566 |    11325     5761     54 |  9.950 % |
|     38719 |    1810    10701    30566 |    12458     7002     58 |  9.950 % |
|     58180 |    1810    10701    30566 |    13703     7158     60 |  9.950 % |
|     87372 |    1810    10701    30566 |    15074     8108     57 |  9.950 % |
ERROR: MiniSat process not found for FULL_RUN_MINISAT\0d3fcbb89bfb8e821058ba3ea4284de1-j3045_10_gmto_b.cnf 
Finished MiniSat on FULL_RUN_MINISAT\0d3fcbb89bfb8e821058ba3ea4284de1-j3045_10_gmto_b.cnf 